(set-logic ALL)
(declare-fun var0 () String)
(assert (str.in_re var0 (re.++ (re.union (re.union (str.to_re "0") (str.to_re "111")) (re.union (str.to_re "222") (str.to_re "3"))) (re.++ (re.union (re.* (str.to_re "444")) (re.* (str.to_re "5"))) (re.++ (re.+ (re.+ (str.to_re "66"))) (re.++ (re.union (re.* (str.to_re "77")) (re.* (str.to_re "88"))) (re.++ (re.+ (re.union (str.to_re "9") (str.to_re "aa"))) (re.++ (re.* (re.* (str.to_re "bb"))) (re.++ (re.+ (re.+ (str.to_re "c"))) (re.++ (re.* (re.union (str.to_re "d") (str.to_re "e"))) (re.++ (re.union (re.* (str.to_re "fff")) (re.* (str.to_re "ggg"))) (re.union (re.* (str.to_re "hh")) (re.* (str.to_re "i"))))))))))))))
(assert (<= 151 (str.len var0)))
(check-sat)